F_UNIQ := 6 9 12;
F_NODES[6] := 6 7 8;
F_NODES[9] := 9 10 11;
F_NODES[12] := 12 13 14;
#definition

# set
set V := 1 2 3 4 5 ; 	# customer set
set F := 6 9 12 7 8 10 11 13 14 ;#recharging & battery swapping station
set D0 :=0;
set Dsig :=15;


# param
param CV := 200;    		# ECV fixed cost(Topic Given)
param C := 200;   		# ECV max load
param Q := 60.63; 		# ECV/BSV battery level
param h := 1;     		# ECV consumption

param CB := 267;    		# BSV fixed cost(Topic Given)
param Qplun := 5;       # BSV max load(battery)
param hplun := 1;     	# BSV consumption
param W := 121.26;		# BSV battery level

param Ct := 10;    		# travel cost
param Cr := 100;    		# recharging cost
param lamda := 0.00;	# battery swap time
param Cb ;  	    # battery swap cost(BSS/BSV)
param n :=5;	   		# number of customers
param g :=1.47 ;     	# the recharging rate of ECV 



# customer demend
param m :=
0 0
1 15
2 10
3 26
4 26
5 9
6 0
9 0
12 0
7 0
8 0
10 0
11 0
13 0
14 0
15 0;

param e :=
0 0
1 0
2 0
3 0
4 93
5 83
6 0
9 0
12 0
7 0
8 0
10 0
11 0
13 0
14 0
15 0;

param l :=
0 230
1 180
2 204
3 199
4 103
5 93
6 230
9 230
12 230
7 230
8 230
10 230
11 230
13 230
14 230
15 230;

param s :=
0 0
1 10
2 10
3 10
4 10
5 10
6 0
9 0
12 0
7 0
8 0
10 0
11 0
13 0
14 0
15 0;

param d : 0 1 2 3 4 5 6 9 12 7 8 10 11 13 14 15 :=
0 0.0000 39.6611 15.2315 20.6155 18.3848 17.4929 0.0000 28.1780 21.1896 0.0000 0.0000 28.1780 28.1780 21.1896 21.1896 0.0000
1 39.6611 0.0000 24.8395 56.6392 57.8014 55.9732 39.6611 12.0416 49.3964 39.6611 39.6611 12.0416 12.0416 49.3964 49.3964 39.6611
2 15.2315 24.8395 0.0000 32.2025 33.6155 31.1448 15.2315 13.0384 26.9258 15.2315 15.2315 13.0384 13.0384 26.9258 26.9258 15.2315
3 20.6155 56.6392 32.2025 0.0000 17.6918 6.4031 20.6155 44.5982 12.0000 20.6155 20.6155 44.5982 44.5982 12.0000 12.0000 20.6155
4 18.3848 57.8014 33.6155 17.6918 0.0000 11.3137 18.3848 46.5188 27.2947 18.3848 18.3848 46.5188 46.5188 27.2947 27.2947 18.3848
5 17.4929 55.9732 31.1448 6.4031 11.3137 0.0000 17.4929 44.0454 16.7631 17.4929 17.4929 44.0454 44.0454 16.7631 16.7631 17.4929
6 0.0000 39.6611 15.2315 20.6155 18.3848 17.4929 0.0000 28.1780 21.1896 0.0000 0.0000 28.1780 28.1780 21.1896 21.1896 0.0000
9 28.1780 12.0416 13.0384 44.5982 46.5188 44.0454 28.1780 0.0000 37.5899 28.1780 28.1780 0.0000 0.0000 37.5899 37.5899 28.1780
12 21.1896 49.3964 26.9258 12.0000 27.2947 16.7631 21.1896 37.5899 0.0000 21.1896 21.1896 37.5899 37.5899 0.0000 0.0000 21.1896
7 0.0000 39.6611 15.2315 20.6155 18.3848 17.4929 0.0000 28.1780 21.1896 0.0000 0.0000 28.1780 28.1780 21.1896 21.1896 0.0000
8 0.0000 39.6611 15.2315 20.6155 18.3848 17.4929 0.0000 28.1780 21.1896 0.0000 0.0000 28.1780 28.1780 21.1896 21.1896 0.0000
10 28.1780 12.0416 13.0384 44.5982 46.5188 44.0454 28.1780 0.0000 37.5899 28.1780 28.1780 0.0000 0.0000 37.5899 37.5899 28.1780
11 28.1780 12.0416 13.0384 44.5982 46.5188 44.0454 28.1780 0.0000 37.5899 28.1780 28.1780 0.0000 0.0000 37.5899 37.5899 28.1780
13 21.1896 49.3964 26.9258 12.0000 27.2947 16.7631 21.1896 37.5899 0.0000 21.1896 21.1896 37.5899 37.5899 0.0000 0.0000 21.1896
14 21.1896 49.3964 26.9258 12.0000 27.2947 16.7631 21.1896 37.5899 0.0000 21.1896 21.1896 37.5899 37.5899 0.0000 0.0000 21.1896
15 0.0000 39.6611 15.2315 20.6155 18.3848 17.4929 0.0000 28.1780 21.1896 0.0000 0.0000 28.1780 28.1780 21.1896 21.1896 0.0000
;

param t : 0 1 2 3 4 5 6 9 12 7 8 10 11 13 14 15 :=
0 0.0000 39.6611 15.2315 20.6155 18.3848 17.4929 0.0000 28.1780 21.1896 0.0000 0.0000 28.1780 28.1780 21.1896 21.1896 0.0000
1 39.6611 0.0000 24.8395 56.6392 57.8014 55.9732 39.6611 12.0416 49.3964 39.6611 39.6611 12.0416 12.0416 49.3964 49.3964 39.6611
2 15.2315 24.8395 0.0000 32.2025 33.6155 31.1448 15.2315 13.0384 26.9258 15.2315 15.2315 13.0384 13.0384 26.9258 26.9258 15.2315
3 20.6155 56.6392 32.2025 0.0000 17.6918 6.4031 20.6155 44.5982 12.0000 20.6155 20.6155 44.5982 44.5982 12.0000 12.0000 20.6155
4 18.3848 57.8014 33.6155 17.6918 0.0000 11.3137 18.3848 46.5188 27.2947 18.3848 18.3848 46.5188 46.5188 27.2947 27.2947 18.3848
5 17.4929 55.9732 31.1448 6.4031 11.3137 0.0000 17.4929 44.0454 16.7631 17.4929 17.4929 44.0454 44.0454 16.7631 16.7631 17.4929
6 0.0000 39.6611 15.2315 20.6155 18.3848 17.4929 0.0000 28.1780 21.1896 0.0000 0.0000 28.1780 28.1780 21.1896 21.1896 0.0000
9 28.1780 12.0416 13.0384 44.5982 46.5188 44.0454 28.1780 0.0000 37.5899 28.1780 28.1780 0.0000 0.0000 37.5899 37.5899 28.1780
12 21.1896 49.3964 26.9258 12.0000 27.2947 16.7631 21.1896 37.5899 0.0000 21.1896 21.1896 37.5899 37.5899 0.0000 0.0000 21.1896
7 0.0000 39.6611 15.2315 20.6155 18.3848 17.4929 0.0000 28.1780 21.1896 0.0000 0.0000 28.1780 28.1780 21.1896 21.1896 0.0000
8 0.0000 39.6611 15.2315 20.6155 18.3848 17.4929 0.0000 28.1780 21.1896 0.0000 0.0000 28.1780 28.1780 21.1896 21.1896 0.0000
10 28.1780 12.0416 13.0384 44.5982 46.5188 44.0454 28.1780 0.0000 37.5899 28.1780 28.1780 0.0000 0.0000 37.5899 37.5899 28.1780
11 28.1780 12.0416 13.0384 44.5982 46.5188 44.0454 28.1780 0.0000 37.5899 28.1780 28.1780 0.0000 0.0000 37.5899 37.5899 28.1780
13 21.1896 49.3964 26.9258 12.0000 27.2947 16.7631 21.1896 37.5899 0.0000 21.1896 21.1896 37.5899 37.5899 0.0000 0.0000 21.1896
14 21.1896 49.3964 26.9258 12.0000 27.2947 16.7631 21.1896 37.5899 0.0000 21.1896 21.1896 37.5899 37.5899 0.0000 0.0000 21.1896
15 0.0000 39.6611 15.2315 20.6155 18.3848 17.4929 0.0000 28.1780 21.1896 0.0000 0.0000 28.1780 28.1780 21.1896 21.1896 0.0000
;